% 
% Converted by convert_jobshop2.pl
% 
% original file (la14) from Google or-tools SVN repository
%   or-tools-read-only/data/jobshop/la14
%
%
% This data file is to be used with either of these two MiniZinc models:
%    http://www.hakank.org/minizinc/jobshop.mzn
%    http://www.hakank.org/minizinc/jobshop2.mzn
%


 
% +++++++++++++++++++++++++++++
% instance la14
% +++++++++++++++++++++++++++++
% Lawrence 20x5 instance (Table 5, instance 4); also called (seth4) or (H4)

num_machines = 20;
num_jobs = 5;
max_time = 99999; 

%
% The times for each job.
%
job_times = array2d(1..num_machines, 1..num_jobs,
[
5,58,44,9,58,
89,96,97,84,77,
81,85,87,39,77,
15,57,73,21,31,
48,71,70,40,49,
10,82,34,80,22,
17,55,91,75,7,
47,62,72,35,11,
90,94,50,64,75,
15,67,12,20,71,
93,29,52,57,68,
77,93,58,70,7,
63,27,95,6,82,
36,26,48,56,87,
36,8,15,76,36,
78,84,41,30,76,
78,75,88,13,81,
54,40,13,82,29,
26,82,52,6,6,
54,64,54,32,88,
]);


%
% The order each job must be done.
%
job_order = array2d(1..num_machines, 1..num_jobs,
[
3,4,2,0,1,
1,4,0,2,3,
2,3,1,4,0,
0,3,4,1,2,
2,4,3,0,1,
0,4,3,2,1,
2,0,1,4,3,
3,2,1,4,0,
1,2,4,0,3,
3,2,0,4,1,
4,2,0,1,3,
3,1,0,2,4,
1,3,0,4,2,
4,0,3,2,1,
2,1,4,3,0,
4,1,3,0,2,
1,0,4,3,2,
0,4,2,1,3,
1,4,0,3,2,
3,1,0,2,4,
]);
